 $contrl coord=unique icharg=0 ispher=1 mult=1 runtyp=energy 
         scftyp=rhf cityp=cis units=bohr  $end
 $basis  gbasis=ccd  $end
 $guess  guess=huckel  $end
 $cis    nstate=5 $end
 $DATA
A molecule.
C1
H 1.00       0.00000000       0.00000000       0.00000000
H 1.00       1.000000000       0.00000000       0.00000000
 $END
